128
128 122 120 119 117 114 110 109 108 105 103 102 98 90 88 80 79 76 74 72 70 67 64 57 55 47 44 37 33 32 31 27 12 0
128 127 126 123 122 118 116 115 113 111 107 99 96 94 93 92 91 89 88 86 84 83 82 76 75 71 70 69 68 66 64 62 61 60 58 53 52 46 45 41 38 36 30 28 25 24 23 22 20 13 10 8 7 6 0
124 104 87 85 81 63 59 50 49 48 42 35 32 26 21 18 16 11 9 5 4 0
124 104 77 59 54 49 48 40 29 26 21 18 15 9 5 3 0
104 87 81 77 63 48 37 35 33 32 29 21 16 12 9 4 3 0
127 122 113 111 107 106 96 95 93 89 84 76 75 71 70 67 64 60 56 41 23 13 10 2 0
128 126 125 123 115 114 113 110 107 101 100 99 94 92 91 88 83 78 76 73 69 68 66 62 58 52 46 45 43 39 28 27 25 20 19 14 8 2 0
128 126 125 123 122 117 115 114 113 110 108 107 105 102 101 100 99 97 94 92 91 90 88 83 79 78 76 75 74 73 69 68 66 65 64 62 58 52 45 43 39 28 27 20 19 14 10 7 2 0
124 104 87 85 81 77 59 54 49 48 42 40 29 26 21 18 15 5 4 3 0
127 126 123 118 116 115 113 111 107 99 96 94 93 92 91 88 86 84 83 82 76 75 71 69 68 66 62 61 58 53 52 46 45 41 38 36 30 28 25 24 22 20 13 8 6 2 0
104 85 81 63 59 50 49 42 17 3 0
120 117 112 110 109 108 103 102 98 90 87 80 79 74 55 48 47 44 37 35 33 32 31 16 5 1 0
127 123 122 113 111 107 106 96 95 93 89 84 76 75 71 70 67 64 60 56 45 41 30 24 23 10 6 2 0
128 126 125 123 115 114 101 100 99 97 94 92 91 88 83 78 76 73 69 68 66 65 62 52 45 43 39 28 27 19 8 7 0
124 112 104 77 54 49 48 40 29 26 21 18 9 4 0
125 121 117 114 110 105 102 97 90 87 80 79 74 65 48 47 37 35 33 32 12 5 3 0
85 81 63 59 50 49 42 11 0
124 104 77 59 54 49 40 29 26 21 15 9 4 3 0
128 126 125 123 117 115 114 110 108 105 101 100 99 97 92 91 90 88 79 78 76 74 73 68 66 65 62 52 51 43 39 28 27 14 8 7 0
128 127 126 123 118 116 115 113 111 107 99 96 94 93 92 91 88 86 84 83 82 76 75 69 68 66 62 61 58 53 52 46 45 43 41 38 36 30 28 25 24 22 10 8 7 2 0
124 104 81 77 59 54 49 48 42 40 29 26 18 15 9 5 4 3 0
126 123 118 116 115 113 94 93 86 83 82 69 66 61 58 53 52 46 45 41 38 36 30 25 24 20 10 2 0
127 122 111 107 106 96 95 89 84 76 75 71 70 67 64 60 57 56 55 13 6 2 0
127 126 123 118 116 115 113 111 107 99 96 94 93 92 91 88 86 84 83 82 75 71 69 68 66 62 61 58 53 52 46 45 41 38 36 30 28 25 22 20 13 10 2 0
127 126 123 118 116 115 113 111 107 99 94 93 92 91 86 84 83 82 75 69 68 66 62 61 58 53 52 46 45 41 38 36 30 28 24 22 20 10 7 2 0
124 104 77 59 54 49 40 29 21 18 15 9 4 3 0
128 127 126 125 123 122 117 115 114 113 110 109 108 107 105 103 102 101 100 99 98 97 92 91 90 88 83 80 79 78 76 75 74 73 70 69 68 67 66 64 62 57 55 52 45 43 39 31 28 19 14 8 7 1 0
128 127 126 125 123 118 116 115 114 113 111 110 108 107 101 100 99 96 94 93 92 91 88 86 83 82 79 78 76 75 74 73 69 68 66 64 62 61 58 53 52 46 45 43 41 39 38 36 30 27 25 24 20 19 14 10 8 7 2 0
124 112 104 77 54 49 48 40 26 21 18 15 9 5 4 0
127 126 123 118 116 115 113 111 107 99 96 94 93 92 91 88 86 84 83 82 76 75 69 68 66 62 61 58 53 52 46 45 41 38 36 28 25 24 22 20 13 10 2 0
122 120 119 117 110 109 108 103 102 98 90 80 79 74 72 67 64 57 55 47 44 37 33 32 27 12 1 0
120 117 112 109 102 98 90 87 80 79 74 48 47 37 35 33 31 16 12 5 3 1 0
125 121 120 117 114 110 109 108 105 102 97 90 87 80 79 78 74 65 48 47 39 37 35 32 31 16 12 5 1 0
125 121 97 65 51 35 0
121 117 105 97 87 74 65 63 48 34 33 32 16 12 5 3 0
127 126 123 118 116 115 113 111 94 93 86 83 82 75 69 66 61 58 53 52 46 45 41 38 30 28 25 24 22 20 10 2 0
120 112 109 103 102 98 87 80 72 48 47 44 33 32 31 16 12 5 1 0
127 126 123 118 116 115 113 111 107 99 96 94 93 92 91 86 84 83 82 75 69 68 66 62 61 58 53 52 46 45 41 36 30 28 25 24 22 20 10 2 0
128 125 121 117 114 110 109 108 105 102 101 100 99 97 92 91 90 88 80 79 78 76 74 73 68 66 65 62 52 51 43 33 28 27 19 14 8 7 0
124 104 77 59 54 49 29 26 21 18 15 9 4 0
127 126 123 118 116 115 113 111 107 99 96 94 93 92 86 84 83 82 75 71 69 68 66 61 58 53 52 46 45 38 36 30 28 25 24 22 20 13 10 6 2 0
104 85 81 63 59 50 49 21 17 11 9 3 0
128 126 125 123 122 117 115 114 113 110 109 108 107 105 102 101 100 99 97 94 92 91 90 88 83 80 79 78 76 74 73 69 68 66 65 64 62 52 45 39 28 27 20 19 14 8 7 0
122 120 119 110 109 108 103 102 98 90 80 79 72 70 67 64 57 55 47 37 31 12 1 0
128 127 126 123 118 116 115 113 111 107 100 99 96 94 93 92 91 88 86 84 83 82 76 75 73 71 69 68 66 62 61 58 53 52 46 43 41 38 36 30 28 27 25 24 22 20 14 13 10 8 7 2 0
127 126 123 118 116 115 113 111 107 99 94 93 92 91 86 83 82 75 69 68 66 62 61 58 53 52 45 41 38 36 30 28 25 24 22 20 10 7 2 0
120 119 112 109 103 102 98 80 72 57 55 44 37 33 32 31 16 12 1 0
112 87 77 54 37 35 33 32 29 21 16 15 12 9 5 4 3 0
124 104 85 81 77 63 59 54 50 42 40 29 26 21 18 17 15 11 9 4 3 0
104 85 81 63 59 49 42 17 11 3 0
125 121 117 114 105 101 100 97 78 74 73 65 39 34 19 0
128 127 126 123 118 116 115 114 113 111 110 108 107 101 100 99 96 94 93 92 91 88 86 84 83 82 79 78 76 75 73 69 68 66 64 62 61 58 53 46 45 43 41 39 38 36 30 28 27 25 24 22 20 19 14 10 8 7 2 0
127 126 123 118 116 115 113 111 107 99 96 94 93 92 91 88 86 84 83 82 75 69 68 66 62 61 58 52 46 45 41 38 36 30 28 25 24 22 20 10 2 0
124 112 104 77 49 48 40 29 26 21 18 15 9 4 0
128 122 120 119 110 109 108 103 102 98 90 88 80 79 76 72 70 67 64 57 47 44 31 27 23 12 1 0
127 122 111 106 96 95 89 84 71 70 67 64 60 23 13 6 0
128 122 120 119 110 109 108 103 102 98 90 89 88 80 79 76 72 70 67 64 55 47 44 31 27 23 1 0
127 126 123 118 116 115 113 111 107 99 94 93 92 91 88 86 84 83 82 75 69 68 66 62 61 53 52 46 45 41 38 36 30 28 25 24 22 20 10 8 7 2 0
124 104 85 81 63 50 49 42 40 26 21 18 17 11 9 4 3 0
127 122 111 107 106 96 95 93 89 84 75 71 70 67 64 56 23 13 6 2 0
127 126 123 118 116 115 113 111 107 94 93 92 86 84 83 82 75 69 68 66 58 53 52 46 45 41 38 36 30 28 25 24 22 20 10 2 0
128 127 126 125 123 122 117 116 115 114 113 110 108 107 105 101 100 99 97 94 93 92 91 90 88 83 82 79 78 76 75 74 73 69 68 66 64 58 53 52 46 45 43 39 38 30 28 27 25 24 20 19 14 10 8 7 2 0
104 85 81 59 50 49 42 35 17 11 5 3 0
128 127 123 122 119 114 110 109 108 107 103 100 98 96 92 91 90 89 88 84 80 79 76 75 71 70 68 67 62 60 57 56 55 52 44 43 31 28 27 23 13 8 6 2 1 0
125 121 117 114 105 102 101 100 97 90 79 78 74 73 51 43 39 35 34 33 19 16 14 8 0
128 127 126 123 118 116 115 114 113 111 110 107 101 100 99 96 94 93 92 91 88 86 84 83 82 76 75 73 69 68 62 61 58 53 52 46 45 43 41 39 38 36 30 28 27 25 24 22 20 19 14 10 8 7 2 0
128 122 120 119 110 109 108 103 98 96 90 89 88 80 79 76 72 71 70 68 64 60 57 56 55 44 31 27 23 13 6 1 0
128 127 126 125 123 122 116 115 114 113 111 110 109 108 107 102 101 100 99 96 94 93 92 91 90 88 84 83 82 79 78 76 75 74 73 71 70 69 67 66 64 62 61 58 53 52 46 45 43 41 39 38 30 28 27 25 24 20 19 14 10 8 7 2 0
128 127 126 123 118 116 115 113 111 107 100 99 96 94 93 92 91 88 86 84 83 82 76 75 73 68 66 62 61 58 53 52 46 45 43 41 38 36 30 28 27 25 24 22 20 14 10 8 7 2 0
128 127 122 111 110 109 108 107 106 103 98 96 95 92 89 88 84 76 75 71 68 67 64 60 57 56 55 44 27 23 13 6 2 1 0
127 126 123 122 113 111 107 106 96 95 93 92 89 88 84 76 75 70 68 67 64 60 56 45 41 24 23 13 10 6 2 0
120 119 109 108 103 102 98 80 67 57 55 47 44 37 31 1 0
128 126 125 123 117 115 114 110 108 105 101 100 99 97 92 91 90 88 83 79 78 76 74 69 68 66 65 62 52 51 45 43 39 28 27 19 14 8 7 0
128 125 121 117 114 110 109 108 105 102 101 100 98 97 91 90 88 80 79 78 76 73 68 65 62 51 43 39 35 33 32 31 28 27 19 16 12 8 1 0
128 127 126 123 122 118 116 115 113 111 107 99 96 94 93 92 91 89 88 86 84 83 82 76 71 70 69 68 66 64 62 61 60 58 53 52 46 45 41 38 36 30 28 27 25 24 23 20 13 10 8 6 2 0
128 127 126 125 123 122 117 115 114 113 111 110 109 108 107 105 102 101 100 99 96 94 93 92 91 90 89 88 83 80 79 78 75 74 73 71 70 69 68 67 66 64 62 57 55 52 45 43 39 30 28 27 23 20 19 14 13 10 8 7 6 2 1 0
124 112 104 54 49 48 40 29 26 21 18 15 9 5 4 0
128 125 121 117 114 110 109 108 105 102 101 100 99 97 92 91 90 88 80 79 76 74 73 68 65 62 52 51 43 39 33 28 27 19 14 8 7 0
128 125 117 114 110 109 108 105 103 102 101 100 99 98 97 92 91 90 88 80 78 76 74 73 68 67 65 64 62 57 55 52 44 43 39 33 32 31 28 27 19 16 12 8 1 0
128 125 120 119 117 114 110 109 108 105 103 102 100 98 97 90 88 79 78 76 74 72 67 64 57 55 47 44 43 39 37 33 32 31 27 16 12 1 0
104 85 63 59 50 49 42 21 17 11 9 5 3 0
127 126 123 118 116 115 113 111 99 94 93 92 86 84 83 75 69 68 66 62 61 58 53 52 46 45 41 38 36 30 28 25 24 22 20 10 2 0
128 127 126 123 118 116 115 113 111 107 100 99 94 93 92 91 88 86 82 76 75 73 69 68 66 62 61 58 53 52 46 45 43 41 38 36 30 28 27 25 24 22 20 14 10 8 7 2 0
127 126 123 122 116 115 113 111 107 106 96 95 94 93 92 89 86 82 75 71 70 69 68 66 64 61 60 58 56 53 52 45 41 38 30 25 24 23 20 13 10 6 2 0
104 81 63 59 50 49 42 17 11 9 3 0
127 126 123 118 116 115 113 111 94 93 92 84 83 82 75 69 66 61 58 53 52 46 45 41 38 36 30 28 25 24 22 20 10 2 0
48 37 35 33 32 16 12 9 5 3 0
128 127 126 125 123 122 117 116 115 114 113 110 109 108 107 105 102 101 100 99 96 94 93 92 91 90 83 80 79 78 76 75 74 73 71 70 69 68 67 66 64 62 58 57 55 53 52 45 43 39 30 28 27 24 20 19 14 10 8 7 2 1 0
127 122 111 107 106 96 95 93 84 76 75 71 70 67 64 60 57 56 23 13 6 2 0
128 125 120 117 114 110 109 108 105 103 102 101 100 98 97 92 91 88 80 79 78 76 74 73 68 67 65 64 62 57 55 44 43 39 33 32 31 27 19 16 12 8 1 0
128 127 126 125 123 122 117 116 115 114 113 110 108 107 105 101 100 99 97 94 93 92 90 88 83 79 78 76 75 74 73 69 68 66 64 62 58 53 52 46 45 43 39 38 30 28 27 25 24 20 19 14 10 8 7 2 0
128 127 126 123 122 118 116 115 114 113 111 110 108 107 101 100 99 96 94 93 91 90 88 86 84 83 82 79 78 76 75 73 71 70 69 68 66 64 62 61 58 53 52 46 45 43 41 39 38 30 28 27 25 24 20 19 14 10 8 7 2 0
127 126 123 118 116 115 113 111 107 99 96 94 92 91 89 88 86 84 83 82 76 75 71 69 68 66 62 61 60 58 53 52 46 45 41 38 36 30 28 25 24 22 20 13 10 6 2 0
128 127 126 123 118 116 115 113 111 107 99 93 92 91 88 86 84 83 82 76 75 69 68 66 62 61 58 53 52 46 45 43 41 38 36 30 28 25 24 22 20 14 10 8 7 2 0
127 122 106 96 89 84 71 70 60 56 23 13 6 0
127 126 123 122 116 115 113 111 107 106 95 93 92 89 88 84 76 75 71 70 69 68 67 66 64 60 56 53 52 45 41 38 30 28 24 23 20 13 10 6 2 0
128 125 121 117 114 110 109 108 105 102 101 100 91 90 80 79 78 74 73 65 62 51 43 39 35 34 33 27 19 16 14 8 0
128 122 120 119 110 109 108 103 102 90 80 79 74 72 70 67 64 57 55 47 44 37 32 31 27 12 1 0
128 127 126 123 118 116 115 114 113 110 107 101 100 94 93 92 91 88 83 82 79 78 76 75 73 69 68 66 62 58 53 52 46 45 43 41 39 38 30 28 27 25 24 20 19 14 10 8 7 2 0
128 126 125 123 117 115 114 110 108 107 105 102 101 99 97 92 91 90 88 83 80 79 78 76 74 73 69 68 66 65 64 62 52 51 45 43 39 28 27 19 14 8 7 0
128 125 117 115 114 110 105 100 99 97 92 91 90 88 79 78 76 74 73 68 66 65 62 52 51 43 39 28 27 19 14 8 7 0
128 125 120 117 114 110 109 108 105 103 100 98 97 90 88 80 79 78 76 74 72 68 65 57 55 47 44 43 39 37 33 32 31 27 16 12 8 1 0
122 120 119 110 109 108 102 98 90 80 79 72 70 67 64 57 55 47 44 37 31 27 12 1 0
124 85 81 77 63 59 54 50 49 42 40 29 26 21 18 15 11 9 5 4 3 0
128 125 121 117 114 110 109 108 102 101 100 97 91 90 88 80 79 78 76 74 73 65 62 51 43 39 35 33 27 19 16 8 1 0
96 95 89 84 71 70 60 56 23 13 6 0
128 127 126 123 122 116 115 113 111 110 100 99 96 94 93 92 91 89 88 84 83 76 75 71 70 69 68 66 64 62 61 60 58 53 52 46 45 43 41 38 30 28 27 25 24 23 20 13 10 8 7 6 2 0
128 125 122 120 117 114 110 109 105 103 102 100 98 97 92 91 90 88 80 79 78 76 74 73 72 70 68 67 64 62 57 55 52 44 43 39 33 31 28 27 19 12 8 1 0
128 122 120 119 117 114 110 108 105 103 102 98 97 90 88 80 79 78 76 74 72 70 68 67 64 57 55 47 44 43 39 37 33 32 31 27 12 1 0
128 126 125 123 122 117 114 109 108 107 105 103 102 101 100 99 98 97 92 91 90 88 80 79 78 76 74 73 70 68 67 66 64 62 57 55 52 44 43 39 33 31 28 27 19 16 12 8 7 1 0
127 126 123 122 118 116 115 113 107 96 94 93 92 89 86 84 83 82 76 75 71 70 69 68 66 61 60 58 56 53 52 46 45 41 38 36 30 28 25 24 23 20 13 10 6 2 0
120 77 54 48 47 37 32 29 15 12 0
128 127 126 123 118 116 115 111 107 99 96 94 93 92 91 88 86 84 83 82 76 75 71 69 68 66 62 61 58 53 52 46 45 43 41 38 36 30 28 27 25 24 22 20 13 10 8 7 6 2 0
128 126 125 123 117 115 110 109 108 105 102 101 100 99 97 92 91 90 88 80 79 78 76 74 73 68 66 65 64 62 52 51 43 39 33 28 27 19 16 14 8 7 1 0
128 127 126 123 118 116 114 113 111 107 101 100 99 96 94 93 92 91 88 86 84 83 82 76 75 73 69 68 66 62 61 58 53 52 46 45 43 41 38 36 30 28 27 25 24 22 20 19 14 10 8 7 2 0
127 126 123 118 115 113 111 107 99 96 94 93 92 91 88 86 84 83 82 75 69 68 66 62 61 58 53 52 46 45 41 38 36 30 28 25 24 22 20 10 2 0
128 125 121 114 110 109 108 105 102 101 100 97 91 90 88 80 79 78 76 74 73 65 62 51 43 39 35 33 32 31 27 19 16 12 8 1 0
126 123 116 115 113 111 99 94 93 92 86 83 82 75 69 66 61 58 53 52 46 45 41 38 36 30 28 25 24 22 20 10 2 0
122 120 109 103 98 80 72 67 64 57 55 47 44 31 1 0
119 112 109 108 103 102 98 90 80 72 67 57 55 47 44 37 33 32 31 12 1 0
125 117 105 97 78 74 65 51 39 35 34 33 16 0
128 127 119 111 110 109 108 107 103 98 96 95 92 91 89 88 84 76 75 71 70 68 67 64 62 60 57 56 55 44 43 31 27 23 13 8 6 2 1 0
128 127 126 118 116 115 114 113 111 110 107 100 99 96 94 93 92 91 88 86 84 83 82 76 75 73 71 69 68 66 64 62 61 58 53 52 46 45 43 41 38 36 30 28 27 25 24 22 20 19 14 13 10 8 7 2 0
104 77 59 54 49 40 29 26 21 18 15 9 4 3 0
128 121 117 114 110 108 105 102 101 100 97 91 90 88 80 79 78 76 74 73 68 65 62 51 43 39 34 33 28 27 19 16 14 8 7 0
128 127 123 118 116 115 114 113 111 110 107 100 99 96 94 93 92 91 88 86 84 83 82 76 75 73 71 69 68 66 62 61 58 53 52 46 45 43 41 38 36 30 28 27 25 24 22 20 19 14 10 8 7 2 0
126 123 122 116 115 113 111 107 99 96 95 94 93 92 91 89 88 86 84 83 82 76 75 71 70 69 68 66 64 62 61 60 58 56 53 52 46 45 41 38 36 30 28 27 25 24 23 20 13 10 6 2 0
